* ; COMMAND-LINE: --ackermann
* ; EXPECT: unsat
* (set-logic QF_UFBV)
* 
* (declare-sort S 0)
* (declare-sort T 0)
* 
* (declare-fun s1 () S)
* (declare-fun s2 () S)
* (declare-fun s3 () S)
* 
* (declare-fun a () (_ BitVec 1))
* (declare-fun b () (_ BitVec 1))
* (declare-fun c () (_ BitVec 1))
* 
* (assert (not (= s1 s2)))
* (assert (not (= s2 s3)))
* (assert (not (= s3 s1)))
* 
* (assert (not (= a b)))
* (assert (not (= b c)))
* (assert (not (= c a)))
* 
* (check-sat)
* (exit)
* 
* unsat
* #variable= 6 #constraint= 15
+1 x2 -1 x3 +1 x1 >= 0;
-1 x2 +1 x3 +1 x1 >= 0;
-1 x2 -1 x3 -1 x1 >= -2;
+1 x2 +1 x3 -1 x1 >= 0;
+1 x1 >= 1;
+1 x3 +1 x5 -1 x4 >= 0;
+1 x3 -1 x5 +1 x4 >= 0;
-1 x3 +1 x5 +1 x4 >= 0;
-1 x3 -1 x5 -1 x4 >= -2;
+1 x4 >= 1;
+1 x2 +1 x5 -1 x6 >= 0;
+1 x2 -1 x5 +1 x6 >= 0;
-1 x2 +1 x5 +1 x6 >= 0;
-1 x2 -1 x5 -1 x6 >= -2;
+1 x6 >= 1;
